src/gams/M-2R.log
--- Job M-2R.gms Start 04/14/23 18:51:48 41.2.0 5110e5ff WEX-WEI x86 64bit/MS Windows
--- Applying:
    D:\GAMS\41\gmsprmNT.txt
--- GAMS Parameters defined
    Input "G:\Mi unidad\5. TFG\src\gams\M-2R.gms"
    PageSize 0
    ScrDir "G:\Mi unidad\5. TFG\src\gams\225a\"
    SysDir D:\GAMS\41\
    LogOption 3
    ErrMsg 1
    ErrorLog 99
    IDE 1
    LstTitleLeftAligned 1
Licensee: GAMS Demo license for Antonio Sevilla Sastre   G221121|0002CO-GEN
          UCM, Spain                                               DL079880
          C:\Users\Antonio\Documents\GAMS\gamslice.txt
          antsev01@ucm.es, Antonio Sevilla Sastre                          
          Demo license for demonstration and instructional purposes only
Processor information: 1 socket(s), 14 core(s), and 20 thread(s) available
GAMS 41.2.0   Copyright (C) 1987-2022 GAMS Development. All rights reserved
--- Starting compilation
--- M-2R.gms(151) 3 Mb
--- Starting execution: elapsed 0:00:00.092
--- Generating MIP model modelo1
--- M-2R.gms(148) 4 Mb
---   871 rows  422 columns  2,439 non-zeroes
---   420 discrete-columns
--- Range statistics (absolute non-zero finite values)
--- RHS       [min, max] : [ 1.000E+00, 2.000E+02] - Zero values observed as well
--- Bound     [min, max] : [ 1.000E+00, 1.000E+00] - Zero values observed as well
--- Matrix    [min, max] : [ 1.000E+00, 3.800E+01]
--- Executing CPLEX (Solvelink=2): elapsed 0:00:00.390

IBM ILOG CPLEX   41.2.0 5110e5ff Nov 14, 2022          WEI x86 64bit/MS Window

--- *** This solver runs with a demo license. No commercial use.
--- GMO setup time: 0.00s
--- Space for names approximately 0.03 Mb
--- Use option 'names no' to turn use of names off
--- GMO memory 0.65 Mb (peak 0.65 Mb)
--- Dictionary memory 0.00 Mb
--- Cplex 22.1.0.0 link memory 0.02 Mb (peak 0.09 Mb)
--- Starting Cplex

Version identifier: 22.1.0.0 | 2022-03-09 | 1a383f8ce
CPXPARAM_Advance                                 0
CPXPARAM_Threads                                 1
CPXPARAM_MIP_Display                             4
CPXPARAM_MIP_Pool_Capacity                       0
CPXPARAM_MIP_Tolerances_AbsMIPGap                0
Generic callback                                 0x50
Found incumbent of value 17.000000 after 0.00 sec. (0.01 ticks)
Tried aggregator 2 times.
MIP Presolve eliminated 777 rows and 315 columns.
MIP Presolve modified 10 coefficients.
Aggregator did 12 substitutions.
Reduced MIP has 81 rows, 95 columns, and 296 nonzeros.
Reduced MIP has 91 binaries, 4 generals, 0 SOSs, and 0 indicators.
Presolve time = 0.02 sec. (0.93 ticks)
Probing time = 0.00 sec. (0.08 ticks)
Tried aggregator 2 times.
Detecting symmetries...
MIP Presolve eliminated 9 rows and 0 columns.
MIP Presolve modified 18 coefficients.
Aggregator did 9 substitutions.
Reduced MIP has 63 rows, 86 columns, and 251 nonzeros.
Reduced MIP has 82 binaries, 4 generals, 0 SOSs, and 0 indicators.
Presolve time = 0.00 sec. (0.41 ticks)
Probing time = 0.00 sec. (0.08 ticks)
Clique table members: 182.
MIP emphasis: balance optimality and feasibility.
MIP search method: dynamic search.
Parallel mode: none, using 1 thread.
Tried aggregator 1 time.
Aggregator did 6 substitutions.
Reduced LP has 57 rows, 80 columns, and 239 nonzeros.
Presolve time = 0.00 sec. (0.06 ticks)
Initializing dual steep norms . . .

Iteration log . . .
Iteration:     1   Dual objective     =             0.000000
Initializing dual steep norms . . .

Iteration log . . .
Iteration:     1   Dual objective     =             0.000000
Root relaxation solution time = 0.00 sec. (0.21 ticks)

        Nodes                                         Cuts/
   Node  Left     Objective  IInf  Best Integer    Best Bound    ItCnt     Gap

*     0+    0                           17.0000        0.0000           100.00%
Found incumbent of value 17.000000 after 0.02 sec. (1.91 ticks)
      0     0        0.0000    16       17.0000        0.0000       26  100.00%
*     0+    0                            0.0000        0.0000             0.00%
Found incumbent of value 0.000000 after 0.02 sec. (3.10 ticks)
      0     0        cutoff              0.0000        0.0000       26    0.00%
Elapsed time = 0.03 sec. (3.10 ticks, tree = 0.01 MB)

Root node processing (before b&c):
  Real time             =    0.03 sec. (3.11 ticks)
Sequential b&c:
  Real time             =    0.00 sec. (0.00 ticks)
                          ------------
Total (root+branch&cut) =    0.03 sec. (3.11 ticks)

--- MIP status (101): integer optimal solution.
--- Cplex Time: 0.03sec (det. 3.11 ticks)

--- Fixing integer variables and solving final LP...

Version identifier: 22.1.0.0 | 2022-03-09 | 1a383f8ce
CPXPARAM_Advance                                 2
CPXPARAM_Threads                                 1
CPXPARAM_MIP_Display                             4
CPXPARAM_MIP_Pool_Capacity                       0
CPXPARAM_MIP_Tolerances_AbsMIPGap                0
Tried aggregator 1 time.
LP Presolve eliminated 870 rows and 422 columns.
All rows and columns eliminated.
Presolve time = 0.00 sec. (0.31 ticks)

--- Fixed MIP status (1): optimal.
--- Cplex Time: 0.00sec (det. 0.60 ticks)


Proven optimal solution
MIP Solution:            0.000000    (26 iterations, 0 nodes)
Final Solve:             0.000000    (0 iterations)

Best possible:           0.000000
Absolute gap:            0.000000
Relative gap:            0.000000

--- Reading solution for model modelo1
*** Status: Normal completion
--- Job M-2R.gms Stop 04/14/23 18:51:49 elapsed 0:00:00.815
